50
1 0 46
2 0 56
2 1 4
3 0 62
3 1 24
3 2 2
4 0 37
4 1 22
4 2 62
4 3 52
5 0 21
5 1 61
5 2 57
5 3 14
5 4 55
6 0 67
6 1 13
6 2 63
6 3 40
6 4 2
6 5 29
7 0 65
7 1 48
7 2 20
7 3 73
7 4 79
7 5 68
7 6 33
8 0 61
8 1 42
8 2 48
8 3 65
8 4 51
8 5 37
8 6 67
8 7 55
9 0 73
9 1 15
9 2 53
9 3 5
9 4 73
9 5 73
9 6 1
9 7 63
9 8 34
10 0 38
10 1 31
10 2 19
10 3 53
10 4 79
10 5 14
10 6 18
10 7 75
10 8 71
10 9 79
11 0 6
11 1 10
11 2 48
11 3 60
11 4 66
11 5 19
11 6 74
11 7 58
11 8 16
11 9 73
11 10 47
12 0 61
12 1 40
12 2 58
12 3 70
12 4 10
12 5 69
12 6 36
12 7 11
12 8 2
12 9 32
12 10 53
12 11 46
13 0 51
13 1 14
13 2 44
13 3 50
13 4 77
13 5 6
13 6 47
13 7 69
13 8 20
13 9 67
13 10 37
13 11 20
13 12 40
14 0 10
14 1 47
14 2 5
14 3 32
14 4 20
14 5 72
14 6 78
14 7 56
14 8 59
14 9 67
14 10 80
14 11 68
14 12 11
14 13 55
15 0 27
15 1 38
15 2 54
15 3 67
15 4 21
15 5 74
15 6 49
15 7 28
15 8 51
15 9 79
15 10 25
15 11 4
15 12 65
15 13 50
15 14 53
16 0 16
16 1 62
16 2 11
16 3 5
16 4 11
16 5 71
16 6 17
16 7 19
16 8 46
16 9 53
16 10 62
16 11 58
16 12 48
16 13 30
16 14 47
16 15 42
17 0 31
17 1 26
17 2 79
17 3 32
17 4 12
17 5 23
17 6 13
17 7 77
17 8 75
17 9 24
17 10 5
17 11 20
17 12 26
17 13 66
17 14 43
17 15 43
17 16 2
18 0 80
18 1 47
18 2 63
18 3 73
18 4 42
18 5 50
18 6 51
18 7 17
18 8 25
18 9 17
18 10 7
18 11 49
18 12 80
18 13 54
18 14 16
18 15 48
18 16 3
18 17 41
19 0 37
19 1 37
19 2 59
19 3 50
19 4 49
19 5 41
19 6 56
19 7 45
19 8 11
19 9 46
19 10 36
19 11 39
19 12 56
19 13 68
19 14 11
19 15 46
19 16 21
19 17 50
19 18 51
20 0 75
20 1 42
20 2 32
20 3 41
20 4 21
20 5 5
20 6 47
20 7 46
20 8 77
20 9 26
20 10 49
20 11 2
20 12 23
20 13 20
20 14 20
20 15 36
20 16 65
20 17 17
20 18 37
20 19 6
21 0 29
21 1 46
21 2 1
21 3 9
21 4 74
21 5 4
21 6 66
21 7 14
21 8 44
21 9 53
21 10 39
21 11 69
21 12 7
21 13 1
21 14 68
21 15 21
21 16 11
21 17 78
21 18 19
21 19 66
21 20 58
22 0 32
22 1 69
22 2 65
22 3 54
22 4 6
22 5 38
22 6 35
22 7 30
22 8 12
22 9 24
22 10 21
22 11 56
22 12 76
22 13 69
22 14 38
22 15 13
22 16 44
22 17 10
22 18 20
22 19 44
22 20 63
22 21 15
23 0 14
23 1 53
23 2 48
23 3 25
23 4 27
23 5 68
23 6 50
23 7 20
23 8 78
23 9 47
23 10 55
23 11 65
23 12 26
23 13 10
23 14 44
23 15 43
23 16 22
23 17 2
23 18 74
23 19 45
23 20 6
23 21 10
23 22 67
24 0 17
24 1 70
24 2 28
24 3 51
24 4 79
24 5 13
24 6 12
24 7 36
24 8 62
24 9 26
24 10 58
24 11 51
24 12 46
24 13 57
24 14 15
24 15 55
24 16 7
24 17 6
24 18 32
24 19 54
24 20 72
24 21 20
24 22 6
24 23 5
25 0 8
25 1 41
25 2 34
25 3 46
25 4 56
25 5 61
25 6 30
25 7 28
25 8 74
25 9 58
25 10 20
25 11 52
25 12 41
25 13 52
25 14 28
25 15 72
25 16 44
25 17 21
25 18 61
25 19 57
25 20 21
25 21 77
25 22 47
25 23 8
25 24 80
26 0 38
26 1 10
26 2 30
26 3 30
26 4 42
26 5 66
26 6 7
26 7 7
26 8 4
26 9 9
26 10 6
26 11 80
26 12 28
26 13 26
26 14 49
26 15 45
26 16 74
26 17 23
26 18 15
26 19 49
26 20 72
26 21 39
26 22 19
26 23 80
26 24 39
26 25 48
27 0 2
27 1 62
27 2 55
27 3 4
27 4 42
27 5 69
27 6 19
27 7 65
27 8 67
27 9 23
27 10 54
27 11 36
27 12 54
27 13 41
27 14 49
27 15 33
27 16 58
27 17 38
27 18 5
27 19 65
27 20 13
27 21 26
27 22 19
27 23 29
27 24 45
27 25 74
27 26 71
28 0 10
28 1 63
28 2 54
28 3 40
28 4 22
28 5 67
28 6 19
28 7 69
28 8 3
28 9 55
28 10 10
28 11 39
28 12 36
28 13 39
28 14 27
28 15 18
28 16 59
28 17 63
28 18 36
28 19 7
28 20 24
28 21 47
28 22 65
28 23 63
28 24 51
28 25 24
28 26 70
28 27 61
29 0 61
29 1 15
29 2 55
29 3 65
29 4 80
29 5 44
29 6 9
29 7 18
29 8 77
29 9 70
29 10 27
29 11 26
29 12 29
29 13 67
29 14 54
29 15 66
29 16 71
29 17 45
29 18 64
29 19 13
29 20 6
29 21 63
29 22 71
29 23 80
29 24 31
29 25 71
29 26 17
29 27 30
29 28 32
30 0 44
30 1 24
30 2 21
30 3 10
30 4 76
30 5 55
30 6 40
30 7 69
30 8 44
30 9 61
30 10 27
30 11 70
30 12 56
30 13 24
30 14 9
30 15 14
30 16 11
30 17 61
30 18 63
30 19 59
30 20 39
30 21 34
30 22 21
30 23 28
30 24 61
30 25 53
30 26 66
30 27 58
30 28 31
30 29 28
31 0 13
31 1 36
31 2 4
31 3 2
31 4 49
31 5 23
31 6 56
31 7 11
31 8 66
31 9 36
31 10 23
31 11 66
31 12 60
31 13 15
31 14 12
31 15 58
31 16 74
31 17 59
31 18 3
31 19 76
31 20 17
31 21 24
31 22 27
31 23 29
31 24 44
31 25 68
31 26 79
31 27 30
31 28 39
31 29 64
31 30 68
32 0 21
32 1 23
32 2 62
32 3 75
32 4 53
32 5 18
32 6 16
32 7 45
32 8 47
32 9 5
32 10 28
32 11 13
32 12 20
32 13 80
32 14 71
32 15 58
32 16 44
32 17 37
32 18 36
32 19 58
32 20 76
32 21 52
32 22 35
32 23 15
32 24 4
32 25 57
32 26 16
32 27 22
32 28 22
32 29 57
32 30 31
32 31 30
33 0 21
33 1 11
33 2 70
33 3 64
33 4 1
33 5 30
33 6 71
33 7 32
33 8 66
33 9 30
33 10 75
33 11 65
33 12 45
33 13 48
33 14 63
33 15 80
33 16 75
33 17 71
33 18 56
33 19 42
33 20 43
33 21 62
33 22 41
33 23 43
33 24 9
33 25 36
33 26 19
33 27 37
33 28 12
33 29 37
33 30 38
33 31 69
33 32 66
34 0 61
34 1 60
34 2 2
34 3 69
34 4 58
34 5 22
34 6 19
34 7 64
34 8 10
34 9 19
34 10 45
34 11 66
34 12 43
34 13 23
34 14 4
34 15 13
34 16 19
34 17 63
34 18 22
34 19 42
34 20 62
34 21 21
34 22 59
34 23 22
34 24 74
34 25 74
34 26 59
34 27 23
34 28 25
34 29 16
34 30 32
34 31 41
34 32 21
34 33 56
35 0 23
35 1 78
35 2 50
35 3 11
35 4 46
35 5 41
35 6 32
35 7 71
35 8 67
35 9 41
35 10 48
35 11 34
35 12 65
35 13 43
35 14 61
35 15 63
35 16 61
35 17 48
35 18 64
35 19 60
35 20 29
35 21 25
35 22 15
35 23 22
35 24 8
35 25 27
35 26 70
35 27 54
35 28 53
35 29 70
35 30 15
35 31 28
35 32 67
35 33 76
35 34 47
36 0 2
36 1 74
36 2 75
36 3 22
36 4 80
36 5 45
36 6 33
36 7 67
36 8 54
36 9 44
36 10 26
36 11 34
36 12 43
36 13 10
36 14 21
36 15 24
36 16 16
36 17 52
36 18 70
36 19 41
36 20 18
36 21 59
36 22 19
36 23 18
36 24 78
36 25 25
36 26 28
36 27 77
36 28 36
36 29 2
36 30 12
36 31 52
36 32 10
36 33 8
36 34 73
36 35 28
37 0 7
37 1 43
37 2 46
37 3 73
37 4 74
37 5 17
37 6 51
37 7 18
37 8 38
37 9 20
37 10 55
37 11 41
37 12 79
37 13 70
37 14 36
37 15 70
37 16 47
37 17 35
37 18 6
37 19 20
37 20 80
37 21 35
37 22 14
37 23 22
37 24 67
37 25 50
37 26 48
37 27 66
37 28 15
37 29 55
37 30 5
37 31 5
37 32 76
37 33 72
37 34 13
37 35 46
37 36 25
38 0 67
38 1 26
38 2 52
38 3 43
38 4 14
38 5 59
38 6 65
38 7 39
38 8 62
38 9 22
38 10 25
38 11 73
38 12 1
38 13 8
38 14 10
38 15 32
38 16 73
38 17 26
38 18 42
38 19 27
38 20 25
38 21 71
38 22 35
38 23 35
38 24 35
38 25 54
38 26 14
38 27 49
38 28 38
38 29 32
38 30 1
38 31 18
38 32 2
38 33 73
38 34 6
38 35 13
38 36 41
38 37 58
39 0 9
39 1 1
39 2 76
39 3 14
39 4 29
39 5 33
39 6 54
39 7 39
39 8 53
39 9 39
39 10 69
39 11 27
39 12 13
39 13 53
39 14 79
39 15 6
39 16 49
39 17 39
39 18 53
39 19 51
39 20 7
39 21 17
39 22 17
39 23 38
39 24 23
39 25 9
39 26 19
39 27 37
39 28 12
39 29 6
39 30 67
39 31 34
39 32 26
39 33 54
39 34 24
39 35 46
39 36 36
39 37 69
39 38 38
40 0 30
40 1 61
40 2 7
40 3 80
40 4 24
40 5 11
40 6 24
40 7 21
40 8 51
40 9 51
40 10 17
40 11 52
40 12 27
40 13 26
40 14 72
40 15 49
40 16 32
40 17 56
40 18 36
40 19 24
40 20 45
40 21 20
40 22 21
40 23 10
40 24 77
40 25 57
40 26 27
40 27 30
40 28 25
40 29 23
40 30 41
40 31 55
40 32 54
40 33 62
40 34 44
40 35 7
40 36 57
40 37 26
40 38 37
40 39 62
41 0 23
41 1 29
41 2 55
41 3 7
41 4 44
41 5 73
41 6 61
41 7 7
41 8 79
41 9 22
41 10 49
41 11 62
41 12 9
41 13 64
41 14 69
41 15 7
41 16 53
41 17 25
41 18 42
41 19 64
41 20 46
41 21 23
41 22 2
41 23 16
41 24 3
41 25 76
41 26 43
41 27 25
41 28 34
41 29 69
41 30 77
41 31 58
41 32 79
41 33 50
41 34 7
41 35 34
41 36 31
41 37 61
41 38 58
41 39 29
41 40 56
42 0 7
42 1 67
42 2 28
42 3 28
42 4 63
42 5 8
42 6 55
42 7 4
42 8 30
42 9 23
42 10 58
42 11 67
42 12 79
42 13 24
42 14 78
42 15 59
42 16 65
42 17 1
42 18 58
42 19 41
42 20 51
42 21 9
42 22 11
42 23 61
42 24 51
42 25 46
42 26 26
42 27 12
42 28 10
42 29 34
42 30 77
42 31 47
42 32 56
42 33 2
42 34 19
42 35 55
42 36 8
42 37 11
42 38 34
42 39 52
42 40 55
42 41 11
43 0 13
43 1 59
43 2 35
43 3 36
43 4 32
43 5 45
43 6 46
43 7 9
43 8 48
43 9 15
43 10 51
43 11 54
43 12 30
43 13 51
43 14 35
43 15 19
43 16 2
43 17 21
43 18 77
43 19 13
43 20 41
43 21 14
43 22 47
43 23 62
43 24 52
43 25 49
43 26 73
43 27 80
43 28 67
43 29 79
43 30 8
43 31 74
43 32 36
43 33 77
43 34 48
43 35 57
43 36 59
43 37 61
43 38 44
43 39 6
43 40 70
43 41 57
43 42 30
44 0 56
44 1 39
44 2 47
44 3 18
44 4 75
44 5 64
44 6 14
44 7 27
44 8 65
44 9 18
44 10 30
44 11 41
44 12 14
44 13 10
44 14 52
44 15 13
44 16 42
44 17 69
44 18 35
44 19 65
44 20 65
44 21 51
44 22 15
44 23 62
44 24 22
44 25 38
44 26 73
44 27 45
44 28 9
44 29 45
44 30 26
44 31 23
44 32 39
44 33 52
44 34 31
44 35 66
44 36 26
44 37 25
44 38 22
44 39 70
44 40 54
44 41 21
44 42 34
44 43 76
45 0 65
45 1 76
45 2 16
45 3 74
45 4 17
45 5 20
45 6 12
45 7 68
45 8 9
45 9 69
45 10 80
45 11 80
45 12 24
45 13 65
45 14 67
45 15 28
45 16 28
45 17 9
45 18 9
45 19 12
45 20 39
45 21 44
45 22 43
45 23 6
45 24 49
45 25 5
45 26 64
45 27 10
45 28 33
45 29 14
45 30 58
45 31 39
45 32 45
45 33 50
45 34 42
45 35 63
45 36 12
45 37 79
45 38 77
45 39 37
45 40 15
45 41 65
45 42 61
45 43 35
45 44 57
46 0 78
46 1 41
46 2 76
46 3 58
46 4 70
46 5 74
46 6 40
46 7 14
46 8 64
46 9 14
46 10 18
46 11 45
46 12 60
46 13 57
46 14 79
46 15 80
46 16 21
46 17 65
46 18 20
46 19 50
46 20 16
46 21 44
46 22 23
46 23 76
46 24 52
46 25 22
46 26 41
46 27 35
46 28 8
46 29 41
46 30 65
46 31 15
46 32 56
46 33 1
46 34 11
46 35 68
46 36 37
46 37 23
46 38 80
46 39 78
46 40 27
46 41 77
46 42 29
46 43 33
46 44 59
46 45 51
47 0 9
47 1 43
47 2 1
47 3 17
47 4 19
47 5 25
47 6 57
47 7 71
47 8 26
47 9 48
47 10 71
47 11 80
47 12 72
47 13 10
47 14 52
47 15 75
47 16 64
47 17 3
47 18 48
47 19 26
47 20 65
47 21 80
47 22 15
47 23 27
47 24 70
47 25 15
47 26 67
47 27 1
47 28 62
47 29 56
47 30 33
47 31 61
47 32 23
47 33 19
47 34 41
47 35 33
47 36 68
47 37 4
47 38 46
47 39 50
47 40 46
47 41 32
47 42 62
47 43 35
47 44 74
47 45 26
47 46 12
48 0 16
48 1 35
48 2 8
48 3 46
48 4 28
48 5 33
48 6 77
48 7 36
48 8 52
48 9 25
48 10 68
48 11 10
48 12 65
48 13 34
48 14 18
48 15 47
48 16 57
48 17 70
48 18 24
48 19 67
48 20 55
48 21 14
48 22 16
48 23 2
48 24 29
48 25 67
48 26 71
48 27 18
48 28 17
48 29 62
48 30 63
48 31 34
48 32 72
48 33 41
48 34 52
48 35 19
48 36 61
48 37 24
48 38 75
48 39 11
48 40 19
48 41 69
48 42 57
48 43 46
48 44 5
48 45 24
48 46 76
48 47 76
49 0 43
49 1 19
49 2 66
49 3 38
49 4 6
49 5 37
49 6 4
49 7 38
49 8 77
49 9 40
49 10 56
49 11 33
49 12 10
49 13 69
49 14 72
49 15 69
49 16 75
49 17 80
49 18 26
49 19 21
49 20 72
49 21 17
49 22 38
49 23 5
49 24 30
49 25 68
49 26 3
49 27 40
49 28 54
49 29 66
49 30 73
49 31 34
49 32 40
49 33 5
49 34 56
49 35 56
49 36 17
49 37 41
49 38 53
49 39 77
49 40 50
49 41 75
49 42 41
49 43 13
49 44 9
49 45 19
49 46 45
49 47 64
49 48 38
